NAME : X_38_seed_123_id_0
TYPE : CVRP
DIMENSION : 275
EDGE_WEIGHT_TYPE : EUC_2D
CAPACITY : 10
NODE_COORD_SECTION
1	510	365
2	382	322
3	988	98
4	742	17
5	364	319
6	377	288
7	264	410
8	911	101
9	369	338
10	953	100
11	396	362
12	428	285
13	510	411
14	386	316
15	955	134
16	345	338
17	883	39
18	995	125
19	431	374
20	983	109
21	602	34
22	887	130
23	325	260
24	993	94
25	388	300
26	402	317
27	480	302
28	358	348
29	757	32
30	797	19
31	534	87
32	865	265
33	887	154
34	389	335
35	929	29
36	994	88
37	887	23
38	646	29
39	971	127
40	752	39
41	737	4
42	942	47
43	945	395
44	931	87
45	311	274
46	412	468
47	955	93
48	393	283
49	388	353
50	733	13
51	862	162
52	490	236
53	374	315
54	626	109
55	421	304
56	542	219
57	723	21
58	732	73
59	354	285
60	418	379
61	843	86
62	831	158
63	837	1
64	422	275
65	388	274
66	657	24
67	998	95
68	772	29
69	357	306
70	815	106
71	382	379
72	992	104
73	997	71
74	712	88
75	466	365
76	880	142
77	431	354
78	414	353
79	930	123
80	362	308
81	999	299
82	766	97
83	824	95
84	665	183
85	768	44
86	768	195
87	444	357
88	452	311
89	827	36
90	997	95
91	854	57
92	995	110
93	341	342
94	349	297
95	393	325
96	367	351
97	350	379
98	436	219
99	764	6
100	990	106
101	425	299
102	946	100
103	374	416
104	941	29
105	949	54
106	974	92
107	985	85
108	991	107
109	987	52
110	939	109
111	736	131
112	345	413
113	792	103
114	738	22
115	353	260
116	320	309
117	984	27
118	245	369
119	748	37
120	518	123
121	780	0
122	258	325
123	814	226
124	116	335
125	895	42
126	976	77
127	510	409
128	343	292
129	511	424
130	374	330
131	381	378
132	833	34
133	734	19
134	673	69
135	908	51
136	501	282
137	440	288
138	742	43
139	778	125
140	724	47
141	425	462
142	947	197
143	353	258
144	954	14
145	380	318
146	787	39
147	392	322
148	925	117
149	410	361
150	345	337
151	434	442
152	390	329
153	278	254
154	687	4
155	294	177
156	411	336
157	1000	87
158	699	9
159	940	73
160	720	48
161	392	284
162	350	279
163	718	10
164	398	319
165	998	84
166	762	101
167	881	118
168	310	382
169	842	130
170	799	53
171	469	303
172	420	329
173	813	51
174	752	32
175	326	319
176	683	69
177	382	297
178	386	333
179	730	43
180	340	379
181	365	260
182	281	424
183	341	260
184	794	119
185	987	39
186	321	317
187	309	282
188	986	104
189	368	305
190	304	344
191	1000	99
192	722	21
193	877	81
194	718	66
195	572	42
196	413	395
197	741	4
198	374	332
199	319	458
200	955	57
201	918	94
202	969	97
203	985	84
204	307	326
205	423	324
206	806	97
207	469	393
208	411	301
209	991	115
210	734	10
211	732	22
212	737	48
213	715	10
214	376	384
215	351	308
216	284	397
217	387	326
218	749	55
219	301	333
220	989	82
221	743	5
222	403	296
223	743	12
224	848	29
225	947	31
226	313	236
227	936	102
228	359	323
229	231	532
230	899	120
231	318	214
232	847	257
233	789	14
234	479	238
235	988	169
236	358	407
237	988	150
238	965	276
239	388	328
240	349	461
241	969	162
242	866	49
243	332	321
244	972	109
245	374	353
246	922	122
247	607	9
248	802	15
249	738	27
250	694	30
251	364	285
252	957	3
253	784	54
254	212	367
255	973	124
256	406	221
257	966	176
258	997	113
259	983	116
260	409	219
261	813	89
262	976	115
263	361	458
264	729	31
265	766	1
266	672	110
267	376	298
268	724	5
269	669	62
270	720	97
271	358	221
272	306	433
273	383	333
274	989	122
275	958	83
DEMAND_SECTION
1	0
2	1
3	1
4	1
5	1
6	1
7	1
8	1
9	1
10	1
11	1
12	1
13	1
14	1
15	1
16	1
17	1
18	1
19	1
20	1
21	1
22	1
23	1
24	1
25	1
26	1
27	1
28	1
29	1
30	1
31	1
32	1
33	1
34	1
35	1
36	1
37	1
38	1
39	1
40	1
41	1
42	1
43	1
44	1
45	1
46	1
47	1
48	1
49	1
50	1
51	1
52	1
53	1
54	1
55	1
56	1
57	1
58	1
59	1
60	1
61	1
62	1
63	1
64	1
65	1
66	1
67	1
68	1
69	1
70	1
71	1
72	1
73	1
74	1
75	1
76	1
77	1
78	1
79	1
80	1
81	1
82	1
83	1
84	1
85	1
86	1
87	1
88	1
89	1
90	1
91	1
92	1
93	1
94	1
95	1
96	1
97	1
98	1
99	1
100	1
101	1
102	1
103	1
104	1
105	1
106	1
107	1
108	1
109	1
110	1
111	1
112	1
113	1
114	1
115	1
116	1
117	1
118	1
119	1
120	1
121	1
122	1
123	1
124	1
125	1
126	1
127	1
128	1
129	1
130	1
131	1
132	1
133	1
134	1
135	1
136	1
137	1
138	1
139	1
140	1
141	1
142	1
143	1
144	1
145	1
146	1
147	1
148	1
149	1
150	1
151	1
152	1
153	1
154	1
155	1
156	1
157	1
158	1
159	1
160	1
161	1
162	1
163	1
164	1
165	1
166	1
167	1
168	1
169	1
170	1
171	1
172	1
173	1
174	1
175	1
176	1
177	1
178	1
179	1
180	1
181	1
182	1
183	1
184	1
185	1
186	1
187	1
188	1
189	1
190	1
191	1
192	1
193	1
194	1
195	1
196	1
197	1
198	1
199	1
200	1
201	1
202	1
203	1
204	1
205	1
206	1
207	1
208	1
209	1
210	1
211	1
212	1
213	1
214	1
215	1
216	1
217	1
218	1
219	1
220	1
221	1
222	1
223	1
224	1
225	1
226	1
227	1
228	1
229	1
230	1
231	1
232	1
233	1
234	1
235	1
236	1
237	1
238	1
239	1
240	1
241	1
242	1
243	1
244	1
245	1
246	1
247	1
248	1
249	1
250	1
251	1
252	1
253	1
254	1
255	1
256	1
257	1
258	1
259	1
260	1
261	1
262	1
263	1
264	1
265	1
266	1
267	1
268	1
269	1
270	1
271	1
272	1
273	1
274	1
275	1
DEPOT_SECTION
1
-1
EOF
